
Gurobi 7.5.2 (linux64) logging started Mon May 21 13:20:11 2018

Academic license - for non-commercial use only

Gurobi 7.5.2 (linux64) logging started Mon May 21 13:20:28 2018

Academic license - for non-commercial use only

Gurobi 7.5.2 (linux64) logging started Mon May 21 13:21:07 2018

Academic license - for non-commercial use only

Gurobi Optimizer version 7.5.2 build v7.5.2rc1 (linux64)
Copyright (c) 2017, Gurobi Optimization, Inc.

Read LP format model from file MAX.lp
Reading time = 0.00 seconds
: 2 rows, 4 columns, 4 nonzeros
Optimize a model with 2 rows, 4 columns and 4 nonzeros
Model has 1 general constraint
Variable types: 4 continuous, 0 integer (0 binary)
Coefficient statistics:
  Matrix range     [3e-03, 1e+00]
  Objective range  [2e-08, 1e+02]
  Bounds range     [0e+00, 0e+00]
  RHS range        [6e+02, 6e+02]
Found heuristic solution: objective -0.0000000
Presolve removed 2 rows and 4 columns
Presolve time: 0.00s
Presolve: All rows and columns removed

Explored 0 nodes (0 simplex iterations) in 0.00 seconds
Thread count was 1 (of 8 available processors)

Solution count 2: 69195.6 -0 

Optimal solution found (tolerance 1.00e-04)
Best objective 6.919564129126e+04, best bound 6.919564129126e+04, gap 0.0000%

Gurobi 7.5.2 (linux64) logging started Mon May 21 13:21:12 2018

Academic license - for non-commercial use only
